3
x^2
3 21 400 400
17
0.9 0.9
0 0
0 0
1 1 0 1 55 0 65
1 1
0
0.9 0.9
0 0
0 0
1 1 0 1 0 0 0
0 0
0
0.9 0.9
0 0
0 0
1 1 0 1 0 0 0
0 0
0
0.9 0.9
0 0
0 0
1 1 0 1 0 0 0
0 0
0
0.9 0.9
0 0
0 0
1 1 0 1 0 0 0
0 0
0
0.9 0.9
0 0
0 0
1 1 0 1 0 0 0
0 0
0
0.9 0.9
0 0
0 0
1 1 0 1 0 0 0
0 0
0
0.9 0.9
0 0
0 0
1 1 0 1 0 0 0
0 0
0
0.9 0.9
0 0
0 0
1 1 0 1 0 0 0
0 0
